
--- Job 3A.gms Start 12/31/21 15:29:40 37.1.0 r07954d5 WEX-WEI x86 64bit/MS Windows
--- Applying:
    C:\GAMS\37\gmsprmNT.txt
--- GAMS Parameters defined
    Input C:\Users\fatma\Desktop\assignment_2019402204\3A.gms
    PageSize 0
    ScrDir C:\Users\fatma\Desktop\assignment_2019402204\225a\
    SysDir C:\GAMS\37\
    LogOption 3
    ErrMsg 1
    ErrorLog 99
    IDE 1
    LstTitleLeftAligned 1
Licensee: GAMS Demo license for FATMANUR YAMAN           G211230|0002CO-GEN
          BOGAZICI UNIVERSITY, Turkey                              DL057000
          C:\Users\fatma\Documents\GAMS\gamslice.txt
          fatmanur.yaman@boun.edu.tr, FATMANUR YAMAN                       
          Demo license for demonstration and instructional purposes only
Processor information: 1 socket(s), 6 core(s), and 12 thread(s) available
GAMS 37.1.0   Copyright (C) 1987-2021 GAMS Development. All rights reserved
--- Starting compilation
--- 3A.gms(60) 3 Mb
--- Starting execution: elapsed 0:00:00.009
--- 3A.gms(57) 4 Mb
--- Generating MIP model question
--- 3A.gms(58) 4 Mb
---   59 rows  73 columns  237 non-zeroes
---   24 discrete-columns
--- Executing CPLEX (Solvelink=2): elapsed 0:00:00.018

IBM ILOG CPLEX   37.1.0 r07954d5 Released Nov 11, 2021 WEI x86 64bit/MS Window

--- *** This solver runs with a demo license. No commercial use.

Reading parameter(s) from "C:\Users\fatma\Desktop\assignment_2019402204\cplex.opt"
>>  objrng all
>>  rhsrng all
Finished reading from "C:\Users\fatma\Desktop\assignment_2019402204\cplex.opt"

--- GMO setup time: 0.00s
--- GMO memory 0.51 Mb (peak 0.51 Mb)
--- Dictionary memory 0.00 Mb
--- Cplex 20.1.0.1 link memory 0.00 Mb (peak 0.01 Mb)
--- Starting Cplex

Version identifier: 20.1.0.1 | 2021-04-07 | 3a818710c
CPXPARAM_Advance                                 0
CPXPARAM_Threads                                 1
CPXPARAM_MIP_Display                             4
CPXPARAM_MIP_Pool_Capacity                       0
CPXPARAM_MIP_Tolerances_AbsMIPGap                0
Generic callback                                 0x50
Found incumbent of value 8400.000000 after 0.00 sec. (0.00 ticks)
Tried aggregator 1 time.
MIP Presolve eliminated 0 rows and 1 columns.
MIP Presolve modified 72 coefficients.
Reduced MIP has 58 rows, 72 columns, and 192 nonzeros.
Reduced MIP has 24 binaries, 0 generals, 0 SOSs, and 0 indicators.
Presolve time = 0.00 sec. (0.09 ticks)
Probing time = 0.00 sec. (0.01 ticks)
Tried aggregator 1 time.
Detecting symmetries...
MIP Presolve modified 60 coefficients.
Reduced MIP has 58 rows, 72 columns, and 192 nonzeros.
Reduced MIP has 24 binaries, 0 generals, 0 SOSs, and 0 indicators.
Presolve time = 0.00 sec. (0.11 ticks)
Probing time = 0.00 sec. (0.01 ticks)
MIP emphasis: balance optimality and feasibility.
MIP search method: dynamic search.
Parallel mode: none, using 1 thread.
Tried aggregator 1 time.
LP Presolve eliminated 24 rows and 24 columns.
Aggregator did 24 substitutions.
Reduced LP has 10 rows, 24 columns, and 48 nonzeros.
Presolve time = 0.00 sec. (0.06 ticks)

Iteration log . . .
Iteration:     1   Dual objective     =           350.000000
Initializing dual steep norms . . .
Root relaxation solution time = 0.02 sec. (0.10 ticks)

        Nodes                                         Cuts/
   Node  Left     Objective  IInf  Best Integer    Best Bound    ItCnt     Gap

*     0+    0                         8400.0000        0.0000           100.00%
Found incumbent of value 8400.000000 after 0.02 sec. (0.38 ticks)
      0     0     1750.0000     4     8400.0000     1750.0000        9   79.17%
*     0+    0                         2450.0000     1750.0000            28.57%
Found incumbent of value 2450.000000 after 0.02 sec. (0.42 ticks)
*     0+    0                         2350.0000     1750.0000            25.53%
Found incumbent of value 2350.000000 after 0.02 sec. (0.51 ticks)
      0     0     1750.0000     4     2350.0000       Cuts: 7       11   25.53%
*     0+    0                         2210.0000     1750.0000            20.81%
Found incumbent of value 2210.000000 after 0.02 sec. (0.76 ticks)
      0     0     1750.0000     6     2210.0000       Cuts: 7       16   20.81%
*     0+    0                         2100.0000     1750.0000            16.67%
Found incumbent of value 2100.000000 after 0.02 sec. (1.70 ticks)
      0     0  -1.00000e+75     0     2100.0000     1750.0000       16   16.67%
Detecting symmetries...
      0     2     1750.0000     6     2100.0000     1750.0000       16   16.67%
Elapsed time = 0.02 sec. (1.77 ticks, tree = 0.01 MB)
*    19    12      integral     0     2090.0000     1750.0000       92   16.27%
Found incumbent of value 2090.000000 after 0.02 sec. (2.43 ticks)
*    60    26      integral     0     2060.0000     1750.0000      215   15.05%
Found incumbent of value 2060.000000 after 0.03 sec. (3.88 ticks)
*    70+   14                         1860.0000     1750.0000             5.91%
Found incumbent of value 1860.000000 after 0.03 sec. (4.20 ticks)
*   100+   14                         1810.0000     1750.0000             3.31%
Found incumbent of value 1810.000000 after 0.03 sec. (5.28 ticks)

Flow cuts applied:  2
Gomory fractional cuts applied:  4

Root node processing (before b&c):
  Real time             =    0.02 sec. (1.76 ticks)
Sequential b&c:
  Real time             =    0.02 sec. (5.64 ticks)
                          ------------
Total (root+branch&cut) =    0.03 sec. (7.40 ticks)

--- MIP status (101): integer optimal solution.
--- Cplex Time: 0.03sec (det. 7.40 ticks)

--- Fixing integer variables and solving final LP...

Version identifier: 20.1.0.1 | 2021-04-07 | 3a818710c
CPXPARAM_Advance                                 2
CPXPARAM_Threads                                 1
CPXPARAM_MIP_Display                             4
CPXPARAM_MIP_Pool_Capacity                       0
CPXPARAM_MIP_Tolerances_AbsMIPGap                0
Tried aggregator 1 time.
LP Presolve eliminated 48 rows and 49 columns.
Reduced LP has 10 rows, 24 columns, and 48 nonzeros.
Presolve time = 0.00 sec. (0.04 ticks)
Initializing dual steep norms . . .

Iteration log . . .
Iteration:     1   Dual objective     =          1750.000000

--- Fixed MIP status (1): optimal.
--- Cplex Time: 0.00sec (det. 0.08 ticks)

--- Start ranging / sensitivity analysis...
--- Right-hand-side ranging...

EQUATION NAME                            LOWER           CURRENT             UPPER
-------------                            -----           -------             -----
cost                                      -INF                NA              +INF   
supply(P1)                                 290               290               300   
supply(P2)                                 220               220       1.00002e+07   
supply(P3)                                 180               180               190   
supply(P4)                                 280               280       1.00003e+07   
demand(D1)                                 170               180               180   
demand(D2)                                   0               200               200   
demand(D3)                                 150               160               160   
demand(D4)                                 130               140               140   
demand(D5)                                   0               250               250   
demand(Dummy)                             -INF                40                40   
rent(P1.D1)                              1e+07             1e+07              +INF   
rent(P1.D2)                              1e+07             1e+07              +INF   
rent(P1.D3)                                160             1e+07              +INF   
rent(P1.D4)                                130             1e+07              +INF   
rent(P1.D5)                              1e+07             1e+07              +INF   
rent(P1.Dummy)                           1e+07             1e+07              +INF   
rent(P2.D1)                              1e+07             1e+07              +INF   
rent(P2.D2)                                200             1e+07              +INF   
rent(P2.D3)                              1e+07             1e+07             1e+07   
rent(P2.D4)                              1e+07             1e+07             1e+07   
rent(P2.D5)                              1e+07             1e+07              +INF   
rent(P2.Dummy)                           1e+07             1e+07              +INF   
rent(P3.D1)                                180             1e+07              +INF   
rent(P3.D2)                              1e+07             1e+07              +INF   
rent(P3.D3)                              1e+07             1e+07             1e+07   
rent(P3.D4)                              1e+07             1e+07             1e+07   
rent(P3.D5)                              1e+07             1e+07              +INF   
rent(P3.Dummy)                           1e+07             1e+07              +INF   
rent(P4.D1)                              1e+07             1e+07              +INF   
rent(P4.D2)                              1e+07             1e+07              +INF   
rent(P4.D3)                              1e+07             1e+07             1e+07   
rent(P4.D4)                              1e+07             1e+07             1e+07   
rent(P4.D5)                                250             1e+07              +INF   
rent(P4.Dummy)                           1e+07             1e+07              +INF   
invest(P1.D1)                           -1e+07                 0              +INF   
invest(P1.D2)                           -1e+07                 0              +INF   
invest(P1.D3)                                0                 0              +INF   
invest(P1.D4)                                0                 0              +INF   
invest(P1.D5)                           -1e+07                 0              +INF   
invest(P1.Dummy)                        -1e+07                 0              +INF   
invest(P2.D1)                           -1e+07                 0              +INF   
invest(P2.D2)                                0                 0              +INF   
invest(P2.D3)                           -1e+07                 0              +INF   
invest(P2.D4)                           -1e+07                 0              +INF   
invest(P2.D5)                           -1e+07                 0              +INF   
invest(P2.Dummy)                  -9.99998e+06                 0              +INF   
invest(P3.D1)                                0                 0              +INF   
invest(P3.D2)                           -1e+07                 0              +INF   
invest(P3.D3)                           -1e+07                 0              +INF   
invest(P3.D4)                           -1e+07                 0              +INF   
invest(P3.D5)                           -1e+07                 0              +INF   
invest(P3.Dummy)                        -1e+07                 0              +INF   
invest(P4.D1)                           -1e+07                 0              +INF   
invest(P4.D2)                           -1e+07                 0              +INF   
invest(P4.D3)                           -1e+07                 0              +INF   
invest(P4.D4)                     -9.99999e+06                 0              +INF   
invest(P4.D5)                                0                 0              +INF   
invest(P4.Dummy)                  -9.99998e+06                 0              +INF   

--- Objective ranging...

VARIABLE NAME                            LOWER           CURRENT             UPPER
-------------                            -----           -------             -----
x(P1.D1)                                    -6               7.5              +INF   
x(P1.D2)                                    -6                 7              +INF   
x(P1.D3)                                     0                 8              +INF   
x(P1.D4)                                     0               5.5              +INF   
x(P1.D5)                                    -6                 8              +INF   
x(P1.Dummy)                                 -6                 0              +INF   
x(P2.D1)                                     0                 6              +INF   
x(P2.D2)                                     0               6.5              +INF   
x(P2.D3)                                     6                 7              +INF   
x(P2.D4)                                     6               7.5              +INF   
x(P2.D5)                                     0               8.5              +INF   
x(P2.Dummy)                                  0                 0                 0   
x(P3.D1)                                     0                11              +INF   
x(P3.D2)                                     0                 6              +INF   
x(P3.D3)                                     6               6.5              +INF   
x(P3.D4)                                     6                 6                 6   
x(P3.D5)                                     0                 7              +INF   
x(P3.Dummy)                                  0                 0              +INF   
x(P4.D1)                                     0                 9              +INF   
x(P4.D2)                                     0                 7              +INF   
x(P4.D3)                                     6                10              +INF   
x(P4.D4)                                     6                 6                 6   
x(P4.D5)                                     0               7.5              +INF   
x(P4.Dummy)                                  0                 0                 0   
t(P1.D1)                                    -6                 0              +INF   
t(P1.D2)                                    -6                 0              +INF   
t(P1.D3)                                    -6                 0               0.5   
t(P1.D4)                                  -0.5                 0               5.5   
t(P1.D5)                                    -6                 0              +INF   
t(P1.Dummy)                                 -6                 0              +INF   
t(P2.D1)                                     0                 0              +INF   
t(P2.D2)                                     0                 0                 0   
t(P2.D3)                                  -INF                 0                 6   
t(P2.D4)                                  -INF                 0                 6   
t(P2.D5)                                     0                 0              +INF   
t(P2.Dummy)                                  0                 0              +INF   
t(P3.D1)                                     0                 0                 0   
t(P3.D2)                                     0                 0              +INF   
t(P3.D3)                                  -INF                 0                 6   
t(P3.D4)                                  -INF                 0                 6   
t(P3.D5)                                     0                 0              +INF   
t(P3.Dummy)                                  0                 0              +INF   
t(P4.D1)                                     0                 0              +INF   
t(P4.D2)                                     0                 0              +INF   
t(P4.D3)                                  -INF                 0                 6   
t(P4.D4)                                  -INF                 0                 6   
t(P4.D5)                                     0                 0                 0   
t(P4.Dummy)                                  0                 0              +INF   
y(P1.D1)                                  -INF              -350              +INF   
y(P1.D2)                                  -INF              -350              +INF   
y(P1.D3)                                  -INF              -350              +INF   
y(P1.D4)                                  -INF              -350              +INF   
y(P1.D5)                                  -INF              -350              +INF   
y(P1.Dummy)                               -INF              -350              +INF   
y(P2.D1)                                  -INF              -350              +INF   
y(P2.D2)                                  -INF              -350              +INF   
y(P2.D3)                                  -INF              -350              +INF   
y(P2.D4)                                  -INF              -350              +INF   
y(P2.D5)                                  -INF              -350              +INF   
y(P2.Dummy)                               -INF              -350              +INF   
y(P3.D1)                                  -INF              -350              +INF   
y(P3.D2)                                  -INF              -350              +INF   
y(P3.D3)                                  -INF              -350              +INF   
y(P3.D4)                                  -INF              -350              +INF   
y(P3.D5)                                  -INF              -350              +INF   
y(P3.Dummy)                               -INF              -350              +INF   
y(P4.D1)                                  -INF              -350              +INF   
y(P4.D2)                                  -INF              -350              +INF   
y(P4.D3)                                  -INF              -350              +INF   
y(P4.D4)                                  -INF              -350              +INF   
y(P4.D5)                                  -INF              -350              +INF   
y(P4.Dummy)                               -INF              -350              +INF   
z                                         -INF                NA              +INF   


Proven optimal solution
MIP Solution:         1810.000000    (497 iterations, 162 nodes)
Final Solve:          1810.000000    (7 iterations)

Best possible:        1810.000000
Absolute gap:            0.000000
Relative gap:            0.000000

--- Reading solution for model question
--- Executing after solve: elapsed 0:00:00.148
--- 3A.gms(59) 4 Mb
*** Status: Normal completion
--- Job 3A.gms Stop 12/31/21 15:29:40 elapsed 0:00:00.149
